
Gurobi 6.5.2 (linux64) logging started Sun Sep 18 18:40:56 2016


Gurobi 6.5.2 (linux64) logging started Sun Sep 18 18:40:56 2016

Optimize a model with 41 rows, 77 columns and 195 nonzeros
Coefficient statistics:
  Matrix range    [1e+00, 2e+00]
  Objective range [3e+00, 1e+02]
  Bounds range    [1e+00, 1e+00]
  RHS range       [1e+00, 1e+00]
Found heuristic solution: objective 1105
Presolve removed 15 rows and 4 columns
Presolve time: 0.00s
Presolved: 26 rows, 73 columns, 149 nonzeros
Variable types: 0 continuous, 73 integer (73 binary)

Root relaxation: objective 6.595000e+02, 19 iterations, 0.00 seconds

    Nodes    |    Current Node    |     Objective Bounds      |     Work
 Expl Unexpl |  Obj  Depth IntInf | Incumbent    BestBd   Gap | It/Node Time

     0     0  659.50000    0    4 1105.00000  659.50000  40.3%     -    0s
H    0     0                     902.0000000  659.50000  26.9%     -    0s
H    0     0                     779.0000000  659.50000  15.3%     -    0s
     0     0  692.75000    0    8  779.00000  692.75000  11.1%     -    0s
     0     0  703.12500    0   12  779.00000  703.12500  9.74%     -    0s
H    0     0                     746.0000000  703.12500  5.75%     -    0s
*    0     0               0     714.0000000  714.00000  0.00%     -    0s

Cutting planes:
  Gomory: 4
  Cover: 17
  Mod-K: 1
  Lazy constraints: 1

Explored 0 nodes (50 simplex iterations) in 0.01 seconds
Thread count was 8 (of 8 available processors)

Optimal solution found (tolerance 1.00e-04)
Best objective 7.140000000000e+02, best bound 7.140000000000e+02, gap 0.0%
